51 76 89 63 85 84 56 91 
65 99 52 86 87 59 97 75 58 77 25 24 83 
69 88 53 9 13 74 57 
81 72 37 36 39 42 44 41 38 40 35 43 1 3 5 4 100 70 61 54 71 93 96 
92 95 62 33 32 31 29 27 26 28 30 34 50 67 94 80 
2 45 46 8 6 7 79 73 78 17 47 14 12 98 
90 82 16 15 11 10 60 55 68 
64 20 19 18 48 21 23 49 22 66 
